NAME : P-n7_2
TYPE : CVRP
DIMENSION : 7
EDGE_WEIGHT_TYPE : EUC_2D
CAPACITY : 4
NODE_COORD_SECTION
1 21 45
2 45 35
3 55 20
4 33 34
5 50 50
6 55 45
7 26 59
DEMAND_SECTION 
1 0 
2 1
3 1
4 1
5 1
6 1
7 1
DEPOT_SECTION
1
-1